6336
6454
6424
6466
6450
6389
6325
6328
6513
6355
6342
6398
6413
6376
6355
6358
6343
6445
6482
6423
6426
6426
6410
6326
6258
6394
6444
6355
6427
6429
6420
6399
6380
6391
6412
6350
6367
6446
6356
6387
6416
6295
6450
6399
6309
6409
6356
6409
6242
6284
6500
6469
6449
6399
6335
6438
6498
6469
6340
6384
6373
6422
6364
6491
6327
6343
6421
6354
6414
6321
6504
6339
6409
6364
6418
6428
6412
6388
6434
6424
6370
6391
6492
6287
6475
6477
6419
6295
6407
6356
6357
6356
6377
6388
6329
6333
6427
6442
6333
6420
